p edge 43 99
e 5 4
e 6 2
e 6 4
e 7 3
e 9 1
e 11 8
e 13 2
e 14 10
e 15 1
e 16 10
e 17 7
e 17 9
e 17 12
e 18 3
e 18 8
e 18 11
e 19 3
e 19 5
e 19 7
e 20 14
e 21 4
e 21 16
e 22 12
e 22 19
e 22 20
e 23 4
e 23 13
e 23 16
e 23 17
e 23 21
e 24 2
e 24 12
e 24 14
e 25 7
e 25 12
e 25 16
e 26 21
e 26 22
e 27 22
e 28 14
e 29 19
e 29 26
e 29 27
e 30 10
e 30 27
e 31 12
e 31 17
e 31 25
e 32 2
e 32 10
e 32 14
e 32 15
e 32 31
e 33 1
e 33 4
e 33 12
e 33 17
e 33 19
e 33 25
e 33 29
e 34 4
e 34 7
e 34 11
e 34 21
e 34 33
e 35 5
e 35 11
e 35 17
e 36 3
e 36 12
e 36 14
e 36 17
e 36 22
e 36 24
e 36 32
e 37 1
e 37 5
e 37 11
e 37 16
e 37 29
e 37 36
e 38 12
e 38 19
e 39 16
e 39 22
e 39 34
e 39 35
e 40 11
e 40 12
e 40 13
e 40 17
e 40 25
e 41 31
e 41 37
e 42 26
e 42 27
e 42 33
e 43 21
e 43 42
